NAME : LC2_6_6
TYPE : PDPTW
DIMENSION : 150
EDGE_WEIGHT_TYPE : EXACT_2D
NODE_COORD_SECTION
1 1 0
2 150 0
3 0 0
4 -10 1971
5 0 2
6 1844 2258
7 3 122
8 3625 90
9 165 85
10 90 354
11 198 20
12 0 538
13 30 722
14 595 7
15 1116 1538
16 8 58
17 2124 90
18 243 35
19 90 0
20 45 20
21 0 194
22 -10 1174
23 0 12
24 1084 1426
25 13 279
26 988 90
27 97 40
28 90 0
29 52 20
30 0 138
31 20 2980
32 307 17
33 1743 2106
34 18 64
35 959 90
36 141 231
37 90 0
38 211 -10
39 593 0
40 20 680
41 451 22
42 2964 3576
43 23 66
44 3242 90
45 83 219
46 90 0
47 210 20
48 0 471
49 20 302
50 529 27
51 890 1481
52 28 165
53 3686 90
54 117 262
55 90 299
56 49 20
57 0 76
58 10 453
59 390 32
60 2202 2647
61 33 182
62 2757 90
63 239 181
64 90 0
65 114 10
66 0 157
67 -20 1519
68 0 37
69 81 518
70 38 142
71 1452 90
72 102 51
73 90 0
74 62 10
75 0 423
76 -30 2801
77 0 42
78 1778 2130
79 43 244
80 2809 90
81 125 23
82 90 0
83 23 -10
84 44 0
85 20 146
86 381 47
87 1731 2015
88 48 262
89 2084 90
90 75 28
91 90 259
92 63 -10
93 197 0
94 20 812
95 113 52
96 245 801
97 53 179
98 2977 90
99 154 257
100 90 0
101 38 -20
102 64 0
103 20 275
104 578 57
105 3000 3458
106 58 28
107 460 90
108 25 150
109 90 78
110 32 -30
111 217 0
112 -20 807
113 0 62
114 2148 2503
115 63 186
116 501 90
117 252 60
118 90 0
119 10 20
120 0 512
121 -10 2662
122 0 67
123 480 997
124 68 101
125 2658 0
126 103 35
127 90 561
128 244 -20
129 19 0
130 -30 1960
131 0 72
132 2554 3107
133 73 74
134 2439 90
135 222 160
136 90 0
137 163 -20
138 460 0
139 -20 2526
140 0 77
141 2427 2870
142 78 17
143 992 90
144 203 200
145 90 0
146 137 10
147 0 592
148 10 867
149 413 82
150 1133 1620
PICKUP_AND_DELIVERY_SECTION
1 0 0 0 0 0 0
2 0 0 0 0 3815 0
3 0 0 0 0 0 248
4 0 0 0 0 90 90
5 0 0 0 0 221 221
6 0 0 0 0 226 226
7 0 0 0 0 -10 -10
8 0 0 0 0 0 0
9 0 0 0 0 2937 2937
10 0 0 0 0 5 0
11 0 0 0 0 1125 1125
12 0 0 0 0 55 55
13 0 0 0 0 90 90
14 0 0 0 0 70 70
15 0 0 0 0 87 87
16 0 0 0 0 10 10
17 0 0 0 0 202 0
18 0 0 0 0 2259 2259
19 0 0 0 0 10 10
20 0 0 0 0 788 788
21 0 0 0 0 30 30
22 0 0 0 0 90 90
23 0 0 0 0 27 27
24 0 0 0 0 0 0
25 0 0 0 0 10 10
26 0 0 0 0 387 0
27 0 0 0 0 412 412
28 0 0 0 0 15 15
29 0 0 0 0 1922 1922
30 0 0 0 0 226 226
31 0 0 0 0 90 90
32 0 0 0 0 21 21
33 0 0 0 0 547 547
34 0 0 0 0 20 20
35 0 0 0 0 377 0
36 0 0 0 0 81 81
37 0 0 0 0 20 20
38 0 0 0 0 3364 3364
39 0 0 0 0 50 50
40 0 0 0 0 90 90
41 0 0 0 0 178 178
42 0 0 0 0 441 441
43 0 0 0 0 -30 -30
44 0 0 0 0 0 0
45 0 0 0 0 96 96
46 0 0 0 0 25 25
47 0 0 0 0 626 626
48 0 0 0 0 173 173
49 0 0 0 0 90 90
50 0 0 0 0 180 180
51 0 0 0 0 470 470
52 0 0 0 0 -10 -10
53 0 0 0 0 0 0
54 0 0 0 0 2045 2045
55 0 0 0 0 30 0
56 0 0 0 0 1833 1833
57 0 0 0 0 176 176
58 0 0 0 0 90 90
59 0 0 0 0 46 46
60 0 0 0 0 62 62
61 0 0 0 0 -10 -10
62 0 0 0 0 0 0
63 0 0 0 0 94 94
64 0 0 0 0 35 35
65 0 0 0 0 790 790
66 0 0 0 0 34 34
67 0 0 0 0 90 90
68 0 0 0 0 231 231
69 0 0 0 0 0 0
70 0 0 0 0 -20 -20
71 0 0 0 0 0 0
72 0 0 0 0 110 110
73 0 0 0 0 40 40
74 0 0 0 0 769 769
75 0 0 0 0 261 261
76 0 0 0 0 90 90
77 0 0 0 0 146 146
78 0 0 0 0 293 293
79 0 0 0 0 -10 -10
80 0 0 0 0 0 0
81 0 0 0 0 2144 2144
82 0 0 0 0 45 45
83 0 0 0 0 3598 3598
84 0 0 0 0 92 92
85 0 0 0 0 90 90
86 0 0 0 0 272 272
87 0 0 0 0 434 434
88 0 0 0 0 -10 -10
89 0 0 0 0 0 0
90 0 0 0 0 1258 1258
91 0 0 0 0 50 0
92 0 0 0 0 3105 3105
93 0 0 0 0 224 224
94 0 0 0 0 90 90
95 0 0 0 0 116 116
96 0 0 0 0 559 559
97 0 0 0 0 20 20
98 0 0 0 0 408 0
99 0 0 0 0 1301 1301
100 0 0 0 0 55 55
101 0 0 0 0 2919 2919
102 0 0 0 0 83 83
103 0 0 0 0 90 90
104 0 0 0 0 201 201
105 0 0 0 0 266 266
106 0 0 0 0 -10 -10
107 0 0 0 0 0 0
108 0 0 0 0 1318 1318
109 0 0 0 0 60 0
110 0 0 0 0 2406 2406
111 0 0 0 0 67 67
112 0 0 0 0 90 90
113 0 0 0 0 50 50
114 0 0 0 0 0 0
115 0 0 0 0 10 10
116 0 0 0 0 261 0
117 0 0 0 0 404 404
118 0 0 0 0 65 65
119 0 0 0 0 2363 2363
120 0 0 0 0 239 239
121 0 0 0 0 90 90
122 0 0 0 0 102 102
123 0 0 0 0 0 0
124 0 0 0 0 30 30
125 0 0 0 0 603 0
126 0 0 0 0 2303 2303
127 0 0 0 0 70 0
128 0 0 0 0 1290 1290
129 0 0 0 0 231 231
130 0 0 0 0 90 90
131 0 0 0 0 114 114
132 0 0 0 0 300 300
133 0 0 0 0 40 40
134 0 0 0 0 526 0
135 0 0 0 0 735 735
136 0 0 0 0 75 75
137 0 0 0 0 3407 3407
138 0 0 0 0 125 125
139 0 0 0 0 90 90
140 0 0 0 0 203 203
141 0 0 0 0 397 397
142 0 0 0 0 20 20
143 0 0 0 0 59 0
144 0 0 0 0 366 366
145 0 0 0 0 80 80
146 0 0 0 0 709 709
147 0 0 0 0 263 263
148 0 0 0 0 90 90
149 0 0 0 0 137 137
150 0 0 0 0 154 154
DEPOT_SECTION
1 
-1
EOF
